\ Equation counts
\     Total        E        G        L        N        X        C        B
\	0	0	0	0
\
\ Variable counts
\                  x        b        i      s1s      s2s       sc       si
\     Total     cont   binary  integer     sos1     sos2    scont     sint
\	30	30

\ Nonzero counts
\     Total    const       NL      DLL
\
\
Minimize
 obj: [ - 7.5 x_1 * x_1 + 15.0 x_1 * x_2 + 18.5 x_1 * x_4 - 8.5 x_1 * x_6 + 3.5 x_1 * x_7 + 22.0 x_1 * x_8 + 10.5 x_1 * x_9 - 11.5 x_1 * x_10 - 19.5 x_1 * x_11 + 8.0 x_1 * x_12 - 3.5 x_1 * x_13 - 10.5 x_1 * x_14 - 20.0 x_1 * x_17 - 1.5 x_1 * x_19 + 8.5 x_1 * x_20 + 9.0 x_1 * x_23 + 18.5 x_1 * x_24 - 11.0 x_1 * x_27 + 11.0 x_1 * x_28 + 4.5 x_1 * x_29 + 3.0 x_1 * x_30 + 15.0 x_2 * x_1 - 6.5 x_2 * x_2 - 1.0 x_2 * x_4 + 1.0 x_2 * x_5 + 11.0 x_2 * x_6 + 2.5 x_2 * x_12 - 23.5 x_2 * x_13 - 6.5 x_2 * x_15 + 6.5 x_2 * x_16 - 18.5 x_2 * x_17 + 9.5 x_2 * x_18 + 22.0 x_2 * x_19 + 9.5 x_2 * x_20 - 17.5 x_2 * x_21 + 10.5 x_2 * x_22 + 6.0 x_2 * x_23 - 18.0 x_2 * x_24 + 20.5 x_2 * x_25 - 7.0 x_2 * x_26 + 6.0 x_2 * x_29 + 21.0 x_2 * x_30 - 0.5 x_3 * x_4 + 7.5 x_3 * x_5 + 11.5 x_3 * x_6 + 16.0 x_3 * x_7 + 21.0 x_3 * x_9 - 21.0 x_3 * x_10 - 6.0 x_3 * x_11 + 7.0 x_3 * x_12 - 15.5 x_3 * x_15 + 18.5 x_3 * x_16 + 5.0 x_3 * x_17 + 23.0 x_3 * x_20 + 12.0 x_3 * x_21 + 21.0 x_3 * x_24 + 11.5 x_3 * x_25 - 3.5 x_3 * x_28 + 23.0 x_3 * x_30 + 18.5 x_4 * x_1 - 1.0 x_4 * x_2 - 0.5 x_4 * x_3 + 14.5 x_4 * x_4 + 14.0 x_4 * x_5 + 1.5 x_4 * x_7 + 1.5 x_4 * x_8 + 13.5 x_4 * x_10 + 6.0 x_4 * x_13 + 17.5 x_4 * x_15 - 17.5 x_4 * x_16 + 4.0 x_4 * x_19 - 7.5 x_4 * x_20 - 23.0 x_4 * x_21 + 23.5 x_4 * x_22 - 14.0 x_4 * x_24 - 23.5 x_4 * x_26 - 13.0 x_4 * x_28 - 19.5 x_4 * x_29 + 8.5 x_4 * x_30 + 1.0 x_5 * x_2 + 7.5 x_5 * x_3 + 14.0 x_5 * x_4 + 14.5 x_5 * x_5 + 16.0 x_5 * x_6 + 5.0 x_5 * x_7 - 1.0 x_5 * x_9 + 13.0 x_5 * x_11 - 7.5 x_5 * x_13 - 22.5 x_5 * x_14 - 3.5 x_5 * x_19 + 4.0 x_5 * x_20 + 8.0 x_5 * x_22 + 14.5 x_5 * x_23 - 21.0 x_5 * x_24 - 11.5 x_5 * x_25 - 17.5 x_5 * x_26 - 14.5 x_5 * x_28 - 7.0 x_5 * x_30 - 8.5 x_6 * x_1 + 11.0 x_6 * x_2 + 11.5 x_6 * x_3 + 16.0 x_6 * x_5 + 9.0 x_6 * x_6 - 13.5 x_6 * x_7 + 24.0 x_6 * x_8 - 23.0 x_6 * x_10 - 21.5 x_6 * x_12 - 11.5 x_6 * x_13 - 3.0 x_6 * x_14 - 21.0 x_6 * x_18 - 20.5 x_6 * x_19 + 21.0 x_6 * x_21 - 22.0 x_6 * x_25 + 22.0 x_6 * x_26 - 15.5 x_6 * x_27 + 9.5 x_6 * x_28 + 17.0 x_6 * x_30 + 3.5 x_7 * x_1 + 16.0 x_7 * x_3 + 1.5 x_7 * x_4 + 5.0 x_7 * x_5 - 13.5 x_7 * x_6 + 12.5 x_7 * x_7 + 2.5 x_7 * x_8 - 20.5 x_7 * x_12 - 19.5 x_7 * x_13 - 16.5 x_7 * x_14 + 23.5 x_7 * x_15 + 16.0 x_7 * x_17 - 3.5 x_7 * x_18 - 5.0 x_7 * x_20 + 8.0 x_7 * x_22 + 19.0 x_7 * x_23 + 18.0 x_7 * x_24 - 6.0 x_7 * x_25 - 20.5 x_7 * x_26 - 17.0 x_7 * x_29 - 14.5 x_7 * x_30 + 22.0 x_8 * x_1 + 1.5 x_8 * x_4 + 24.0 x_8 * x_6 + 2.5 x_8 * x_7 + 5.5 x_8 * x_8 + 8.5 x_8 * x_9 - 19.0 x_8 * x_11 + 4.0 x_8 * x_12 - 2.5 x_8 * x_13 - 4.0 x_8 * x_14 + 19.5 x_8 * x_15 + 2.5 x_8 * x_17 + 21.5 x_8 * x_18 - 7.0 x_8 * x_19 - 23.5 x_8 * x_20 + 15.0 x_8 * x_21 + 2.0 x_8 * x_22 - 17.5 x_8 * x_23 - 15.5 x_8 * x_24 + 18.0 x_8 * x_25 - 20.5 x_8 * x_26 - 23.0 x_8 * x_28 - 12.5 x_8 * x_30 + 10.5 x_9 * x_1 + 21.0 x_9 * x_3 - 1.0 x_9 * x_5 + 8.5 x_9 * x_8 + 24.0 x_9 * x_9 + 5.0 x_9 * x_12 + 22.5 x_9 * x_13 + 19.0 x_9 * x_14 + 14.0 x_9 * x_16 + 20.5 x_9 * x_17 + 12.5 x_9 * x_18 - 4.0 x_9 * x_19 - 19.0 x_9 * x_20 + 9.0 x_9 * x_25 - 12.5 x_9 * x_26 - 23.5 x_9 * x_27 + 19.0 x_9 * x_28 - 6.5 x_9 * x_29 - 11.5 x_10 * x_1 - 21.0 x_10 * x_3 + 13.5 x_10 * x_4 - 23.0 x_10 * x_6 + 6.5 x_10 * x_10 + 14.0 x_10 * x_14 - 16.0 x_10 * x_15 - 23.0 x_10 * x_17 - 18.0 x_10 * x_18 - 15.0 x_10 * x_19 + 18.0 x_10 * x_24 - 20.5 x_10 * x_25 + 5.5 x_10 * x_26 - 13.5 x_10 * x_29 + 22.5 x_10 * x_30 - 19.5 x_11 * x_1 - 6.0 x_11 * x_3 + 13.0 x_11 * x_5 - 19.0 x_11 * x_8 - 24.5 x_11 * x_11 - 17.5 x_11 * x_14 - 10.0 x_11 * x_17 - 10.5 x_11 * x_19 + 15.0 x_11 * x_20 - 21.0 x_11 * x_21 - 15.0 x_11 * x_22 + 6.5 x_11 * x_23 + 23.0 x_11 * x_24 - 2.0 x_11 * x_25 + 18.5 x_11 * x_26 + 8.0 x_12 * x_1 + 2.5 x_12 * x_2 + 7.0 x_12 * x_3 - 21.5 x_12 * x_6 - 20.5 x_12 * x_7 + 4.0 x_12 * x_8 + 5.0 x_12 * x_9 - 8.0 x_12 * x_12 - 10.0 x_12 * x_13 + 8.0 x_12 * x_15 + 12.5 x_12 * x_16 - 0.5 x_12 * x_17 - 0.5 x_12 * x_18 - 12.5 x_12 * x_19 + 18.0 x_12 * x_20 + 22.5 x_12 * x_21 + 12.5 x_12 * x_22 - 19.0 x_12 * x_23 - 7.5 x_12 * x_27 + 17.0 x_12 * x_30 - 3.5 x_13 * x_1 - 23.5 x_13 * x_2 + 6.0 x_13 * x_4 - 7.5 x_13 * x_5 - 11.5 x_13 * x_6 - 19.5 x_13 * x_7 - 2.5 x_13 * x_8 + 22.5 x_13 * x_9 - 10.0 x_13 * x_12 + 11.0 x_13 * x_13 + 9.0 x_13 * x_14 + 2.5 x_13 * x_15 - 15.5 x_13 * x_16 - 24.0 x_13 * x_18 - 3.5 x_13 * x_19 + 6.5 x_13 * x_20 + 4.5 x_13 * x_22 + 0.5 x_13 * x_23 + 1.0 x_13 * x_24 - 19.0 x_13 * x_25 + 2.0 x_13 * x_26 + 23.5 x_13 * x_27 - 18.0 x_13 * x_28 + 20.5 x_13 * x_29 + 5.0 x_13 * x_30 - 10.5 x_14 * x_1 - 22.5 x_14 * x_5 - 3.0 x_14 * x_6 - 16.5 x_14 * x_7 - 4.0 x_14 * x_8 + 19.0 x_14 * x_9 + 14.0 x_14 * x_10 - 17.5 x_14 * x_11 + 9.0 x_14 * x_13 + 23.5 x_14 * x_14 + 10.0 x_14 * x_15 + 6.0 x_14 * x_16 - 12.5 x_14 * x_17 - 1.5 x_14 * x_18 - 13.5 x_14 * x_20 - 10.5 x_14 * x_22 - 16.0 x_14 * x_24 + 22.0 x_14 * x_25 - 11.5 x_14 * x_26 - 15.0 x_14 * x_29 - 1.5 x_14 * x_30 - 6.5 x_15 * x_2 - 15.5 x_15 * x_3 + 17.5 x_15 * x_4 + 23.5 x_15 * x_7 + 19.5 x_15 * x_8 - 16.0 x_15 * x_10 + 8.0 x_15 * x_12 + 2.5 x_15 * x_13 + 10.0 x_15 * x_14 + 18.0 x_15 * x_15 - 20.0 x_15 * x_17 + 23.5 x_15 * x_18 + 2.5 x_15 * x_19 - 20.0 x_15 * x_20 + 21.0 x_15 * x_21 + 16.0 x_15 * x_25 + 14.0 x_15 * x_26 - 20.0 x_15 * x_27 - 0.5 x_15 * x_28 - 22.0 x_15 * x_30 + 6.5 x_16 * x_2 + 18.5 x_16 * x_3 - 17.5 x_16 * x_4 + 14.0 x_16 * x_9 + 12.5 x_16 * x_12 - 15.5 x_16 * x_13 + 6.0 x_16 * x_14 - 12.0 x_16 * x_17 - 14.5 x_16 * x_18 + 12.5 x_16 * x_20 + 20.5 x_16 * x_21 + 8.0 x_16 * x_22 + 2.0 x_16 * x_23 + 10.0 x_16 * x_24 - 2.5 x_16 * x_25 - 13.0 x_16 * x_26 + 11.0 x_16 * x_27 - 14.5 x_16 * x_28 - 19.0 x_16 * x_29 - 18.5 x_16 * x_30 - 20.0 x_17 * x_1 - 18.5 x_17 * x_2 + 5.0 x_17 * x_3 + 16.0 x_17 * x_7 + 2.5 x_17 * x_8 + 20.5 x_17 * x_9 - 23.0 x_17 * x_10 - 10.0 x_17 * x_11 - 0.5 x_17 * x_12 - 12.5 x_17 * x_14 - 20.0 x_17 * x_15 - 12.0 x_17 * x_16 + 3.5 x_17 * x_17 - 1.5 x_17 * x_20 + 1.5 x_17 * x_22 + 24.5 x_17 * x_23 - 22.5 x_17 * x_24 - 21.5 x_17 * x_26 + 0.5 x_17 * x_27 + 5.5 x_17 * x_28 + 9.5 x_18 * x_2 - 21.0 x_18 * x_6 - 3.5 x_18 * x_7 + 21.5 x_18 * x_8 + 12.5 x_18 * x_9 - 18.0 x_18 * x_10 - 0.5 x_18 * x_12 - 24.0 x_18 * x_13 - 1.5 x_18 * x_14 + 23.5 x_18 * x_15 - 14.5 x_18 * x_16 - 23.5 x_18 * x_19 - 8.0 x_18 * x_20 - 10.5 x_18 * x_22 - 3.5 x_18 * x_23 + 3.5 x_18 * x_25 - 3.0 x_18 * x_26 + 4.0 x_18 * x_27 - 12.0 x_18 * x_29 - 1.5 x_19 * x_1 + 22.0 x_19 * x_2 + 4.0 x_19 * x_4 - 3.5 x_19 * x_5 - 20.5 x_19 * x_6 - 7.0 x_19 * x_8 - 4.0 x_19 * x_9 - 15.0 x_19 * x_10 - 10.5 x_19 * x_11 - 12.5 x_19 * x_12 - 3.5 x_19 * x_13 + 2.5 x_19 * x_15 - 23.5 x_19 * x_18 + 17.5 x_19 * x_19 - 14.0 x_19 * x_20 - 18.0 x_19 * x_21 - 17.5 x_19 * x_22 + 17.0 x_19 * x_23 - 8.0 x_19 * x_24 - 0.5 x_19 * x_25 - 12.5 x_19 * x_26 + 9.0 x_19 * x_27 - 12.5 x_19 * x_28 - 2.5 x_19 * x_29 + 2.0 x_19 * x_30 + 8.5 x_20 * x_1 + 9.5 x_20 * x_2 + 23.0 x_20 * x_3 - 7.5 x_20 * x_4 + 4.0 x_20 * x_5 - 5.0 x_20 * x_7 - 23.5 x_20 * x_8 - 19.0 x_20 * x_9 + 15.0 x_20 * x_11 + 18.0 x_20 * x_12 + 6.5 x_20 * x_13 - 13.5 x_20 * x_14 - 20.0 x_20 * x_15 + 12.5 x_20 * x_16 - 1.5 x_20 * x_17 - 8.0 x_20 * x_18 - 14.0 x_20 * x_19 + 17.0 x_20 * x_20 - 15.5 x_20 * x_21 + 21.0 x_20 * x_22 + 11.5 x_20 * x_23 - 2.5 x_20 * x_24 - 8.5 x_20 * x_25 - 2.5 x_20 * x_29 - 14.0 x_20 * x_30 - 17.5 x_21 * x_2 + 12.0 x_21 * x_3 - 23.0 x_21 * x_4 + 21.0 x_21 * x_6 + 15.0 x_21 * x_8 - 21.0 x_21 * x_11 + 22.5 x_21 * x_12 + 21.0 x_21 * x_15 + 20.5 x_21 * x_16 - 18.0 x_21 * x_19 - 15.5 x_21 * x_20 + 17.5 x_21 * x_21 - 6.5 x_21 * x_23 + 22.0 x_21 * x_26 - 15.5 x_21 * x_27 - 15.5 x_21 * x_28 - 18.0 x_21 * x_29 + 12.0 x_21 * x_30 + 10.5 x_22 * x_2 + 23.5 x_22 * x_4 + 8.0 x_22 * x_5 + 8.0 x_22 * x_7 + 2.0 x_22 * x_8 - 15.0 x_22 * x_11 + 12.5 x_22 * x_12 + 4.5 x_22 * x_13 - 10.5 x_22 * x_14 + 8.0 x_22 * x_16 + 1.5 x_22 * x_17 - 10.5 x_22 * x_18 - 17.5 x_22 * x_19 + 21.0 x_22 * x_20 + 6.5 x_22 * x_22 - 12.0 x_22 * x_23 + 4.5 x_22 * x_24 - 18.0 x_22 * x_25 + 15.0 x_22 * x_29 + 17.0 x_22 * x_30 + 9.0 x_23 * x_1 + 6.0 x_23 * x_2 + 14.5 x_23 * x_5 + 19.0 x_23 * x_7 - 17.5 x_23 * x_8 + 6.5 x_23 * x_11 - 19.0 x_23 * x_12 + 0.5 x_23 * x_13 + 2.0 x_23 * x_16 + 24.5 x_23 * x_17 - 3.5 x_23 * x_18 + 17.0 x_23 * x_19 + 11.5 x_23 * x_20 - 6.5 x_23 * x_21 - 12.0 x_23 * x_22 - 15.5 x_23 * x_23 + 9.0 x_23 * x_24 + 4.5 x_23 * x_26 - 17.5 x_23 * x_27 - 8.0 x_23 * x_28 + 22.0 x_23 * x_29 + 0.5 x_23 * x_30 + 18.5 x_24 * x_1 - 18.0 x_24 * x_2 + 21.0 x_24 * x_3 - 14.0 x_24 * x_4 - 21.0 x_24 * x_5 + 18.0 x_24 * x_7 - 15.5 x_24 * x_8 + 18.0 x_24 * x_10 + 23.0 x_24 * x_11 + 1.0 x_24 * x_13 - 16.0 x_24 * x_14 + 10.0 x_24 * x_16 - 22.5 x_24 * x_17 - 8.0 x_24 * x_19 - 2.5 x_24 * x_20 + 4.5 x_24 * x_22 + 9.0 x_24 * x_23 + 0.5 x_24 * x_24 - 2.0 x_24 * x_25 - 17.5 x_24 * x_27 - 23.5 x_24 * x_28 + 20.5 x_25 * x_2 + 11.5 x_25 * x_3 - 11.5 x_25 * x_5 - 22.0 x_25 * x_6 - 6.0 x_25 * x_7 + 18.0 x_25 * x_8 + 9.0 x_25 * x_9 - 20.5 x_25 * x_10 - 2.0 x_25 * x_11 - 19.0 x_25 * x_13 + 22.0 x_25 * x_14 + 16.0 x_25 * x_15 - 2.5 x_25 * x_16 + 3.5 x_25 * x_18 - 0.5 x_25 * x_19 - 8.5 x_25 * x_20 - 18.0 x_25 * x_22 - 2.0 x_25 * x_24 - 22.0 x_25 * x_28 - 11.0 x_25 * x_29 - 7.0 x_26 * x_2 - 23.5 x_26 * x_4 - 17.5 x_26 * x_5 + 22.0 x_26 * x_6 - 20.5 x_26 * x_7 - 20.5 x_26 * x_8 - 12.5 x_26 * x_9 + 5.5 x_26 * x_10 + 18.5 x_26 * x_11 + 2.0 x_26 * x_13 - 11.5 x_26 * x_14 + 14.0 x_26 * x_15 - 13.0 x_26 * x_16 - 21.5 x_26 * x_17 - 3.0 x_26 * x_18 - 12.5 x_26 * x_19 + 22.0 x_26 * x_21 + 4.5 x_26 * x_23 - 9.5 x_26 * x_26 - 8.0 x_26 * x_28 - 24.0 x_26 * x_29 - 11.0 x_27 * x_1 - 15.5 x_27 * x_6 - 23.5 x_27 * x_9 - 7.5 x_27 * x_12 + 23.5 x_27 * x_13 - 20.0 x_27 * x_15 + 11.0 x_27 * x_16 + 0.5 x_27 * x_17 + 4.0 x_27 * x_18 + 9.0 x_27 * x_19 - 15.5 x_27 * x_21 - 17.5 x_27 * x_23 - 17.5 x_27 * x_24 - 21.5 x_27 * x_27 - 20.0 x_27 * x_28 + 11.0 x_28 * x_1 - 3.5 x_28 * x_3 - 13.0 x_28 * x_4 - 14.5 x_28 * x_5 + 9.5 x_28 * x_6 - 23.0 x_28 * x_8 + 19.0 x_28 * x_9 - 18.0 x_28 * x_13 - 0.5 x_28 * x_15 - 14.5 x_28 * x_16 + 5.5 x_28 * x_17 - 12.5 x_28 * x_19 - 15.5 x_28 * x_21 - 8.0 x_28 * x_23 - 23.5 x_28 * x_24 - 22.0 x_28 * x_25 - 8.0 x_28 * x_26 - 20.0 x_28 * x_27 - 17.5 x_28 * x_30 + 4.5 x_29 * x_1 + 6.0 x_29 * x_2 - 19.5 x_29 * x_4 - 17.0 x_29 * x_7 - 6.5 x_29 * x_9 - 13.5 x_29 * x_10 + 20.5 x_29 * x_13 - 15.0 x_29 * x_14 - 19.0 x_29 * x_16 - 12.0 x_29 * x_18 - 2.5 x_29 * x_19 - 2.5 x_29 * x_20 - 18.0 x_29 * x_21 + 15.0 x_29 * x_22 + 22.0 x_29 * x_23 - 11.0 x_29 * x_25 - 24.0 x_29 * x_26 - 5.5 x_29 * x_29 + 0.5 x_29 * x_30 + 3.0 x_30 * x_1 + 21.0 x_30 * x_2 + 23.0 x_30 * x_3 + 8.5 x_30 * x_4 - 7.0 x_30 * x_5 + 17.0 x_30 * x_6 - 14.5 x_30 * x_7 - 12.5 x_30 * x_8 + 22.5 x_30 * x_10 + 17.0 x_30 * x_12 + 5.0 x_30 * x_13 - 1.5 x_30 * x_14 - 22.0 x_30 * x_15 - 18.5 x_30 * x_16 + 2.0 x_30 * x_19 - 14.0 x_30 * x_20 + 12.0 x_30 * x_21 + 17.0 x_30 * x_22 + 0.5 x_30 * x_23 - 17.5 x_30 * x_28 + 0.5 x_30 * x_29 + 6.5 x_30 * x_30 ] + 39.0 x_1 + 45.0 x_2 + 0.0 x_3 + 0.0 x_4 + 5.0 x_5 + 0.0 x_6 + 45.0 x_7 + 34.0 x_8 + 18.0 x_9 - 20.0 x_10 + 0.0 x_11 - 27.0 x_12 - 15.0 x_13 + 0.0 x_14 - 33.0 x_15 + 33.0 x_16 - 26.0 x_17 + 8.0 x_18 + 49.0 x_19 + 35.0 x_20 - 32.0 x_21 + 0.0 x_22 - 23.0 x_23 - 47.0 x_24 + 25.0 x_25 + 40.0 x_26 + 33.0 x_27 - 25.0 x_28 + 47.0 x_29 + 0.0 x_30

Subject To

Bounds
 x_1 <= 1.0
 x_2 <= 1.0
 x_3 <= 1.0
 x_4 <= 1.0
 x_5 <= 1.0
 x_6 <= 1.0
 x_7 <= 1.0
 x_8 <= 1.0
 x_9 <= 1.0
 x_10 <= 1.0
 x_11 <= 1.0
 x_12 <= 1.0
 x_13 <= 1.0
 x_14 <= 1.0
 x_15 <= 1.0
 x_16 <= 1.0
 x_17 <= 1.0
 x_18 <= 1.0
 x_19 <= 1.0
 x_20 <= 1.0
 x_21 <= 1.0
 x_22 <= 1.0
 x_23 <= 1.0
 x_24 <= 1.0
 x_25 <= 1.0
 x_26 <= 1.0
 x_27 <= 1.0
 x_28 <= 1.0
 x_29 <= 1.0
 x_30 <= 1.0

End